certificates/rado_a11_c2_N129.cnf
c Rad2 upper bound instance: x1 + 11*x2 - x3 = 2, interval [1,129]
p cnf 129 1430
1 10 0
-1 -10 0
1 2 21 0
-1 -2 -21 0
1 3 32 0
-1 -3 -32 0
1 4 43 0
-1 -4 -43 0
1 5 54 0
-1 -5 -54 0
1 6 65 0
-1 -6 -65 0
1 7 76 0
-1 -7 -76 0
1 8 87 0
-1 -8 -87 0
1 9 98 0
-1 -9 -98 0
1 10 109 0
-1 -10 -109 0
1 11 120 0
-1 -11 -120 0
1 2 11 0
-1 -2 -11 0
2 22 0
-2 -22 0
2 3 33 0
-2 -3 -33 0
2 4 44 0
-2 -4 -44 0
2 5 55 0
-2 -5 -55 0
2 6 66 0
-2 -6 -66 0
2 7 77 0
-2 -7 -77 0
2 8 88 0
-2 -8 -88 0
2 9 99 0
-2 -9 -99 0
2 10 110 0
-2 -10 -110 0
2 11 121 0
-2 -11 -121 0
1 3 12 0
-1 -3 -12 0
2 3 23 0
-2 -3 -23 0
3 34 0
-3 -34 0
3 4 45 0
-3 -4 -45 0
3 5 56 0
-3 -5 -56 0
3 6 67 0
-3 -6 -67 0
3 7 78 0
-3 -7 -78 0
3 8 89 0
-3 -8 -89 0
3 9 100 0
-3 -9 -100 0
3 10 111 0
-3 -10 -111 0
3 11 122 0
-3 -11 -122 0
1 4 13 0
-1 -4 -13 0
2 4 24 0
-2 -4 -24 0
3 4 35 0
-3 -4 -35 0
4 46 0
-4 -46 0
4 5 57 0
-4 -5 -57 0
4 6 68 0
-4 -6 -68 0
4 7 79 0
-4 -7 -79 0
4 8 90 0
-4 -8 -90 0
4 9 101 0
-4 -9 -101 0
4 10 112 0
-4 -10 -112 0
4 11 123 0
-4 -11 -123 0
1 5 14 0
-1 -5 -14 0
2 5 25 0
-2 -5 -25 0
3 5 36 0
-3 -5 -36 0
4 5 47 0
-4 -5 -47 0
5 58 0
-5 -58 0
5 6 69 0
-5 -6 -69 0
5 7 80 0
-5 -7 -80 0
5 8 91 0
-5 -8 -91 0
5 9 102 0
-5 -9 -102 0
5 10 113 0
-5 -10 -113 0
5 11 124 0
-5 -11 -124 0
1 6 15 0
-1 -6 -15 0
2 6 26 0
-2 -6 -26 0
3 6 37 0
-3 -6 -37 0
4 6 48 0
-4 -6 -48 0
5 6 59 0
-5 -6 -59 0
6 70 0
-6 -70 0
6 7 81 0
-6 -7 -81 0
6 8 92 0
-6 -8 -92 0
6 9 103 0
-6 -9 -103 0
6 10 114 0
-6 -10 -114 0
6 11 125 0
-6 -11 -125 0
1 7 16 0
-1 -7 -16 0
2 7 27 0
-2 -7 -27 0
3 7 38 0
-3 -7 -38 0
4 7 49 0
-4 -7 -49 0
5 7 60 0
-5 -7 -60 0
6 7 71 0
-6 -7 -71 0
7 82 0
-7 -82 0
7 8 93 0
-7 -8 -93 0
7 9 104 0
-7 -9 -104 0
7 10 115 0
-7 -10 -115 0
7 11 126 0
-7 -11 -126 0
1 8 17 0
-1 -8 -17 0
2 8 28 0
-2 -8 -28 0
3 8 39 0
-3 -8 -39 0
4 8 50 0
-4 -8 -50 0
5 8 61 0
-5 -8 -61 0
6 8 72 0
-6 -8 -72 0
7 8 83 0
-7 -8 -83 0
8 94 0
-8 -94 0
8 9 105 0
-8 -9 -105 0
8 10 116 0
-8 -10 -116 0
8 11 127 0
-8 -11 -127 0
1 9 18 0
-1 -9 -18 0
2 9 29 0
-2 -9 -29 0
3 9 40 0
-3 -9 -40 0
4 9 51 0
-4 -9 -51 0
5 9 62 0
-5 -9 -62 0
6 9 73 0
-6 -9 -73 0
7 9 84 0
-7 -9 -84 0
8 9 95 0
-8 -9 -95 0
9 106 0
-9 -106 0
9 10 117 0
-9 -10 -117 0
9 11 128 0
-9 -11 -128 0
1 10 19 0
-1 -10 -19 0
2 10 30 0
-2 -10 -30 0
3 10 41 0
-3 -10 -41 0
4 10 52 0
-4 -10 -52 0
5 10 63 0
-5 -10 -63 0
6 10 74 0
-6 -10 -74 0
7 10 85 0
-7 -10 -85 0
8 10 96 0
-8 -10 -96 0
9 10 107 0
-9 -10 -107 0
10 118 0
-10 -118 0
10 11 129 0
-10 -11 -129 0
1 11 20 0
-1 -11 -20 0
2 11 31 0
-2 -11 -31 0
3 11 42 0
-3 -11 -42 0
4 11 53 0
-4 -11 -53 0
5 11 64 0
-5 -11 -64 0
6 11 75 0
-6 -11 -75 0
7 11 86 0
-7 -11 -86 0
8 11 97 0
-8 -11 -97 0
9 11 108 0
-9 -11 -108 0
10 11 119 0
-10 -11 -119 0
1 12 21 0
-1 -12 -21 0
2 12 32 0
-2 -12 -32 0
3 12 43 0
-3 -12 -43 0
4 12 54 0
-4 -12 -54 0
5 12 65 0
-5 -12 -65 0
6 12 76 0
-6 -12 -76 0
7 12 87 0
-7 -12 -87 0
8 12 98 0
-8 -12 -98 0
9 12 109 0
-9 -12 -109 0
10 12 120 0
-10 -12 -120 0
1 13 22 0
-1 -13 -22 0
2 13 33 0
-2 -13 -33 0
3 13 44 0
-3 -13 -44 0
4 13 55 0
-4 -13 -55 0
5 13 66 0
-5 -13 -66 0
6 13 77 0
-6 -13 -77 0
7 13 88 0
-7 -13 -88 0
8 13 99 0
-8 -13 -99 0
9 13 110 0
-9 -13 -110 0
10 13 121 0
-10 -13 -121 0
1 14 23 0
-1 -14 -23 0
2 14 34 0
-2 -14 -34 0
3 14 45 0
-3 -14 -45 0
4 14 56 0
-4 -14 -56 0
5 14 67 0
-5 -14 -67 0
6 14 78 0
-6 -14 -78 0
7 14 89 0
-7 -14 -89 0
8 14 100 0
-8 -14 -100 0
9 14 111 0
-9 -14 -111 0
10 14 122 0
-10 -14 -122 0
1 15 24 0
-1 -15 -24 0
2 15 35 0
-2 -15 -35 0
3 15 46 0
-3 -15 -46 0
4 15 57 0
-4 -15 -57 0
5 15 68 0
-5 -15 -68 0
6 15 79 0
-6 -15 -79 0
7 15 90 0
-7 -15 -90 0
8 15 101 0
-8 -15 -101 0
9 15 112 0
-9 -15 -112 0
10 15 123 0
-10 -15 -123 0
1 16 25 0
-1 -16 -25 0
2 16 36 0
-2 -16 -36 0
3 16 47 0
-3 -16 -47 0
4 16 58 0
-4 -16 -58 0
5 16 69 0
-5 -16 -69 0
6 16 80 0
-6 -16 -80 0
7 16 91 0
-7 -16 -91 0
8 16 102 0
-8 -16 -102 0
9 16 113 0
-9 -16 -113 0
10 16 124 0
-10 -16 -124 0
1 17 26 0
-1 -17 -26 0
2 17 37 0
-2 -17 -37 0
3 17 48 0
-3 -17 -48 0
4 17 59 0
-4 -17 -59 0
5 17 70 0
-5 -17 -70 0
6 17 81 0
-6 -17 -81 0
7 17 92 0
-7 -17 -92 0
8 17 103 0
-8 -17 -103 0
9 17 114 0
-9 -17 -114 0
10 17 125 0
-10 -17 -125 0
1 18 27 0
-1 -18 -27 0
2 18 38 0
-2 -18 -38 0
3 18 49 0
-3 -18 -49 0
4 18 60 0
-4 -18 -60 0
5 18 71 0
-5 -18 -71 0
6 18 82 0
-6 -18 -82 0
7 18 93 0
-7 -18 -93 0
8 18 104 0
-8 -18 -104 0
9 18 115 0
-9 -18 -115 0
10 18 126 0
-10 -18 -126 0
1 19 28 0
-1 -19 -28 0
2 19 39 0
-2 -19 -39 0
3 19 50 0
-3 -19 -50 0
4 19 61 0
-4 -19 -61 0
5 19 72 0
-5 -19 -72 0
6 19 83 0
-6 -19 -83 0
7 19 94 0
-7 -19 -94 0
8 19 105 0
-8 -19 -105 0
9 19 116 0
-9 -19 -116 0
10 19 127 0
-10 -19 -127 0
1 20 29 0
-1 -20 -29 0
2 20 40 0
-2 -20 -40 0
3 20 51 0
-3 -20 -51 0
4 20 62 0
-4 -20 -62 0
5 20 73 0
-5 -20 -73 0
6 20 84 0
-6 -20 -84 0
7 20 95 0
-7 -20 -95 0
8 20 106 0
-8 -20 -106 0
9 20 117 0
-9 -20 -117 0
10 20 128 0
-10 -20 -128 0
1 21 30 0
-1 -21 -30 0
2 21 41 0
-2 -21 -41 0
3 21 52 0
-3 -21 -52 0
4 21 63 0
-4 -21 -63 0
5 21 74 0
-5 -21 -74 0
6 21 85 0
-6 -21 -85 0
7 21 96 0
-7 -21 -96 0
8 21 107 0
-8 -21 -107 0
9 21 118 0
-9 -21 -118 0
10 21 129 0
-10 -21 -129 0
1 22 31 0
-1 -22 -31 0
2 22 42 0
-2 -22 -42 0
3 22 53 0
-3 -22 -53 0
4 22 64 0
-4 -22 -64 0
5 22 75 0
-5 -22 -75 0
6 22 86 0
-6 -22 -86 0
7 22 97 0
-7 -22 -97 0
8 22 108 0
-8 -22 -108 0
9 22 119 0
-9 -22 -119 0
1 23 32 0
-1 -23 -32 0
2 23 43 0
-2 -23 -43 0
3 23 54 0
-3 -23 -54 0
4 23 65 0
-4 -23 -65 0
5 23 76 0
-5 -23 -76 0
6 23 87 0
-6 -23 -87 0
7 23 98 0
-7 -23 -98 0
8 23 109 0
-8 -23 -109 0
9 23 120 0
-9 -23 -120 0
1 24 33 0
-1 -24 -33 0
2 24 44 0
-2 -24 -44 0
3 24 55 0
-3 -24 -55 0
4 24 66 0
-4 -24 -66 0
5 24 77 0
-5 -24 -77 0
6 24 88 0
-6 -24 -88 0
7 24 99 0
-7 -24 -99 0
8 24 110 0
-8 -24 -110 0
9 24 121 0
-9 -24 -121 0
1 25 34 0
-1 -25 -34 0
2 25 45 0
-2 -25 -45 0
3 25 56 0
-3 -25 -56 0
4 25 67 0
-4 -25 -67 0
5 25 78 0
-5 -25 -78 0
6 25 89 0
-6 -25 -89 0
7 25 100 0
-7 -25 -100 0
8 25 111 0
-8 -25 -111 0
9 25 122 0
-9 -25 -122 0
1 26 35 0
-1 -26 -35 0
2 26 46 0
-2 -26 -46 0
3 26 57 0
-3 -26 -57 0
4 26 68 0
-4 -26 -68 0
5 26 79 0
-5 -26 -79 0
6 26 90 0
-6 -26 -90 0
7 26 101 0
-7 -26 -101 0
8 26 112 0
-8 -26 -112 0
9 26 123 0
-9 -26 -123 0
1 27 36 0
-1 -27 -36 0
2 27 47 0
-2 -27 -47 0
3 27 58 0
-3 -27 -58 0
4 27 69 0
-4 -27 -69 0
5 27 80 0
-5 -27 -80 0
6 27 91 0
-6 -27 -91 0
7 27 102 0
-7 -27 -102 0
8 27 113 0
-8 -27 -113 0
9 27 124 0
-9 -27 -124 0
1 28 37 0
-1 -28 -37 0
2 28 48 0
-2 -28 -48 0
3 28 59 0
-3 -28 -59 0
4 28 70 0
-4 -28 -70 0
5 28 81 0
-5 -28 -81 0
6 28 92 0
-6 -28 -92 0
7 28 103 0
-7 -28 -103 0
8 28 114 0
-8 -28 -114 0
9 28 125 0
-9 -28 -125 0
1 29 38 0
-1 -29 -38 0
2 29 49 0
-2 -29 -49 0
3 29 60 0
-3 -29 -60 0
4 29 71 0
-4 -29 -71 0
5 29 82 0
-5 -29 -82 0
6 29 93 0
-6 -29 -93 0
7 29 104 0
-7 -29 -104 0
8 29 115 0
-8 -29 -115 0
9 29 126 0
-9 -29 -126 0
1 30 39 0
-1 -30 -39 0
2 30 50 0
-2 -30 -50 0
3 30 61 0
-3 -30 -61 0
4 30 72 0
-4 -30 -72 0
5 30 83 0
-5 -30 -83 0
6 30 94 0
-6 -30 -94 0
7 30 105 0
-7 -30 -105 0
8 30 116 0
-8 -30 -116 0
9 30 127 0
-9 -30 -127 0
1 31 40 0
-1 -31 -40 0
2 31 51 0
-2 -31 -51 0
3 31 62 0
-3 -31 -62 0
4 31 73 0
-4 -31 -73 0
5 31 84 0
-5 -31 -84 0
6 31 95 0
-6 -31 -95 0
7 31 106 0
-7 -31 -106 0
8 31 117 0
-8 -31 -117 0
9 31 128 0
-9 -31 -128 0
1 32 41 0
-1 -32 -41 0
2 32 52 0
-2 -32 -52 0
3 32 63 0
-3 -32 -63 0
4 32 74 0
-4 -32 -74 0
5 32 85 0
-5 -32 -85 0
6 32 96 0
-6 -32 -96 0
7 32 107 0
-7 -32 -107 0
8 32 118 0
-8 -32 -118 0
9 32 129 0
-9 -32 -129 0
1 33 42 0
-1 -33 -42 0
2 33 53 0
-2 -33 -53 0
3 33 64 0
-3 -33 -64 0
4 33 75 0
-4 -33 -75 0
5 33 86 0
-5 -33 -86 0
6 33 97 0
-6 -33 -97 0
7 33 108 0
-7 -33 -108 0
8 33 119 0
-8 -33 -119 0
1 34 43 0
-1 -34 -43 0
2 34 54 0
-2 -34 -54 0
3 34 65 0
-3 -34 -65 0
4 34 76 0
-4 -34 -76 0
5 34 87 0
-5 -34 -87 0
6 34 98 0
-6 -34 -98 0
7 34 109 0
-7 -34 -109 0
8 34 120 0
-8 -34 -120 0
1 35 44 0
-1 -35 -44 0
2 35 55 0
-2 -35 -55 0
3 35 66 0
-3 -35 -66 0
4 35 77 0
-4 -35 -77 0
5 35 88 0
-5 -35 -88 0
6 35 99 0
-6 -35 -99 0
7 35 110 0
-7 -35 -110 0
8 35 121 0
-8 -35 -121 0
1 36 45 0
-1 -36 -45 0
2 36 56 0
-2 -36 -56 0
3 36 67 0
-3 -36 -67 0
4 36 78 0
-4 -36 -78 0
5 36 89 0
-5 -36 -89 0
6 36 100 0
-6 -36 -100 0
7 36 111 0
-7 -36 -111 0
8 36 122 0
-8 -36 -122 0
1 37 46 0
-1 -37 -46 0
2 37 57 0
-2 -37 -57 0
3 37 68 0
-3 -37 -68 0
4 37 79 0
-4 -37 -79 0
5 37 90 0
-5 -37 -90 0
6 37 101 0
-6 -37 -101 0
7 37 112 0
-7 -37 -112 0
8 37 123 0
-8 -37 -123 0
1 38 47 0
-1 -38 -47 0
2 38 58 0
-2 -38 -58 0
3 38 69 0
-3 -38 -69 0
4 38 80 0
-4 -38 -80 0
5 38 91 0
-5 -38 -91 0
6 38 102 0
-6 -38 -102 0
7 38 113 0
-7 -38 -113 0
8 38 124 0
-8 -38 -124 0
1 39 48 0
-1 -39 -48 0
2 39 59 0
-2 -39 -59 0
3 39 70 0
-3 -39 -70 0
4 39 81 0
-4 -39 -81 0
5 39 92 0
-5 -39 -92 0
6 39 103 0
-6 -39 -103 0
7 39 114 0
-7 -39 -114 0
8 39 125 0
-8 -39 -125 0
1 40 49 0
-1 -40 -49 0
2 40 60 0
-2 -40 -60 0
3 40 71 0
-3 -40 -71 0
4 40 82 0
-4 -40 -82 0
5 40 93 0
-5 -40 -93 0
6 40 104 0
-6 -40 -104 0
7 40 115 0
-7 -40 -115 0
8 40 126 0
-8 -40 -126 0
1 41 50 0
-1 -41 -50 0
2 41 61 0
-2 -41 -61 0
3 41 72 0
-3 -41 -72 0
4 41 83 0
-4 -41 -83 0
5 41 94 0
-5 -41 -94 0
6 41 105 0
-6 -41 -105 0
7 41 116 0
-7 -41 -116 0
8 41 127 0
-8 -41 -127 0
1 42 51 0
-1 -42 -51 0
2 42 62 0
-2 -42 -62 0
3 42 73 0
-3 -42 -73 0
4 42 84 0
-4 -42 -84 0
5 42 95 0
-5 -42 -95 0
6 42 106 0
-6 -42 -106 0
7 42 117 0
-7 -42 -117 0
8 42 128 0
-8 -42 -128 0
1 43 52 0
-1 -43 -52 0
2 43 63 0
-2 -43 -63 0
3 43 74 0
-3 -43 -74 0
4 43 85 0
-4 -43 -85 0
5 43 96 0
-5 -43 -96 0
6 43 107 0
-6 -43 -107 0
7 43 118 0
-7 -43 -118 0
8 43 129 0
-8 -43 -129 0
1 44 53 0
-1 -44 -53 0
2 44 64 0
-2 -44 -64 0
3 44 75 0
-3 -44 -75 0
4 44 86 0
-4 -44 -86 0
5 44 97 0
-5 -44 -97 0
6 44 108 0
-6 -44 -108 0
7 44 119 0
-7 -44 -119 0
1 45 54 0
-1 -45 -54 0
2 45 65 0
-2 -45 -65 0
3 45 76 0
-3 -45 -76 0
4 45 87 0
-4 -45 -87 0
5 45 98 0
-5 -45 -98 0
6 45 109 0
-6 -45 -109 0
7 45 120 0
-7 -45 -120 0
1 46 55 0
-1 -46 -55 0
2 46 66 0
-2 -46 -66 0
3 46 77 0
-3 -46 -77 0
4 46 88 0
-4 -46 -88 0
5 46 99 0
-5 -46 -99 0
6 46 110 0
-6 -46 -110 0
7 46 121 0
-7 -46 -121 0
1 47 56 0
-1 -47 -56 0
2 47 67 0
-2 -47 -67 0
3 47 78 0
-3 -47 -78 0
4 47 89 0
-4 -47 -89 0
5 47 100 0
-5 -47 -100 0
6 47 111 0
-6 -47 -111 0
7 47 122 0
-7 -47 -122 0
1 48 57 0
-1 -48 -57 0
2 48 68 0
-2 -48 -68 0
3 48 79 0
-3 -48 -79 0
4 48 90 0
-4 -48 -90 0
5 48 101 0
-5 -48 -101 0
6 48 112 0
-6 -48 -112 0
7 48 123 0
-7 -48 -123 0
1 49 58 0
-1 -49 -58 0
2 49 69 0
-2 -49 -69 0
3 49 80 0
-3 -49 -80 0
4 49 91 0
-4 -49 -91 0
5 49 102 0
-5 -49 -102 0
6 49 113 0
-6 -49 -113 0
7 49 124 0
-7 -49 -124 0
1 50 59 0
-1 -50 -59 0
2 50 70 0
-2 -50 -70 0
3 50 81 0
-3 -50 -81 0
4 50 92 0
-4 -50 -92 0
5 50 103 0
-5 -50 -103 0
6 50 114 0
-6 -50 -114 0
7 50 125 0
-7 -50 -125 0
1 51 60 0
-1 -51 -60 0
2 51 71 0
-2 -51 -71 0
3 51 82 0
-3 -51 -82 0
4 51 93 0
-4 -51 -93 0
5 51 104 0
-5 -51 -104 0
6 51 115 0
-6 -51 -115 0
7 51 126 0
-7 -51 -126 0
1 52 61 0
-1 -52 -61 0
2 52 72 0
-2 -52 -72 0
3 52 83 0
-3 -52 -83 0
4 52 94 0
-4 -52 -94 0
5 52 105 0
-5 -52 -105 0
6 52 116 0
-6 -52 -116 0
7 52 127 0
-7 -52 -127 0
1 53 62 0
-1 -53 -62 0
2 53 73 0
-2 -53 -73 0
3 53 84 0
-3 -53 -84 0
4 53 95 0
-4 -53 -95 0
5 53 106 0
-5 -53 -106 0
6 53 117 0
-6 -53 -117 0
7 53 128 0
-7 -53 -128 0
1 54 63 0
-1 -54 -63 0
2 54 74 0
-2 -54 -74 0
3 54 85 0
-3 -54 -85 0
4 54 96 0
-4 -54 -96 0
5 54 107 0
-5 -54 -107 0
6 54 118 0
-6 -54 -118 0
7 54 129 0
-7 -54 -129 0
1 55 64 0
-1 -55 -64 0
2 55 75 0
-2 -55 -75 0
3 55 86 0
-3 -55 -86 0
4 55 97 0
-4 -55 -97 0
5 55 108 0
-5 -55 -108 0
6 55 119 0
-6 -55 -119 0
1 56 65 0
-1 -56 -65 0
2 56 76 0
-2 -56 -76 0
3 56 87 0
-3 -56 -87 0
4 56 98 0
-4 -56 -98 0
5 56 109 0
-5 -56 -109 0
6 56 120 0
-6 -56 -120 0
1 57 66 0
-1 -57 -66 0
2 57 77 0
-2 -57 -77 0
3 57 88 0
-3 -57 -88 0
4 57 99 0
-4 -57 -99 0
5 57 110 0
-5 -57 -110 0
6 57 121 0
-6 -57 -121 0
1 58 67 0
-1 -58 -67 0
2 58 78 0
-2 -58 -78 0
3 58 89 0
-3 -58 -89 0
4 58 100 0
-4 -58 -100 0
5 58 111 0
-5 -58 -111 0
6 58 122 0
-6 -58 -122 0
1 59 68 0
-1 -59 -68 0
2 59 79 0
-2 -59 -79 0
3 59 90 0
-3 -59 -90 0
4 59 101 0
-4 -59 -101 0
5 59 112 0
-5 -59 -112 0
6 59 123 0
-6 -59 -123 0
1 60 69 0
-1 -60 -69 0
2 60 80 0
-2 -60 -80 0
3 60 91 0
-3 -60 -91 0
4 60 102 0
-4 -60 -102 0
5 60 113 0
-5 -60 -113 0
6 60 124 0
-6 -60 -124 0
1 61 70 0
-1 -61 -70 0
2 61 81 0
-2 -61 -81 0
3 61 92 0
-3 -61 -92 0
4 61 103 0
-4 -61 -103 0
5 61 114 0
-5 -61 -114 0
6 61 125 0
-6 -61 -125 0
1 62 71 0
-1 -62 -71 0
2 62 82 0
-2 -62 -82 0
3 62 93 0
-3 -62 -93 0
4 62 104 0
-4 -62 -104 0
5 62 115 0
-5 -62 -115 0
6 62 126 0
-6 -62 -126 0
1 63 72 0
-1 -63 -72 0
2 63 83 0
-2 -63 -83 0
3 63 94 0
-3 -63 -94 0
4 63 105 0
-4 -63 -105 0
5 63 116 0
-5 -63 -116 0
6 63 127 0
-6 -63 -127 0
1 64 73 0
-1 -64 -73 0
2 64 84 0
-2 -64 -84 0
3 64 95 0
-3 -64 -95 0
4 64 106 0
-4 -64 -106 0
5 64 117 0
-5 -64 -117 0
6 64 128 0
-6 -64 -128 0
1 65 74 0
-1 -65 -74 0
2 65 85 0
-2 -65 -85 0
3 65 96 0
-3 -65 -96 0
4 65 107 0
-4 -65 -107 0
5 65 118 0
-5 -65 -118 0
6 65 129 0
-6 -65 -129 0
1 66 75 0
-1 -66 -75 0
2 66 86 0
-2 -66 -86 0
3 66 97 0
-3 -66 -97 0
4 66 108 0
-4 -66 -108 0
5 66 119 0
-5 -66 -119 0
1 67 76 0
-1 -67 -76 0
2 67 87 0
-2 -67 -87 0
3 67 98 0
-3 -67 -98 0
4 67 109 0
-4 -67 -109 0
5 67 120 0
-5 -67 -120 0
1 68 77 0
-1 -68 -77 0
2 68 88 0
-2 -68 -88 0
3 68 99 0
-3 -68 -99 0
4 68 110 0
-4 -68 -110 0
5 68 121 0
-5 -68 -121 0
1 69 78 0
-1 -69 -78 0
2 69 89 0
-2 -69 -89 0
3 69 100 0
-3 -69 -100 0
4 69 111 0
-4 -69 -111 0
5 69 122 0
-5 -69 -122 0
1 70 79 0
-1 -70 -79 0
2 70 90 0
-2 -70 -90 0
3 70 101 0
-3 -70 -101 0
4 70 112 0
-4 -70 -112 0
5 70 123 0
-5 -70 -123 0
1 71 80 0
-1 -71 -80 0
2 71 91 0
-2 -71 -91 0
3 71 102 0
-3 -71 -102 0
4 71 113 0
-4 -71 -113 0
5 71 124 0
-5 -71 -124 0
1 72 81 0
-1 -72 -81 0
2 72 92 0
-2 -72 -92 0
3 72 103 0
-3 -72 -103 0
4 72 114 0
-4 -72 -114 0
5 72 125 0
-5 -72 -125 0
1 73 82 0
-1 -73 -82 0
2 73 93 0
-2 -73 -93 0
3 73 104 0
-3 -73 -104 0
4 73 115 0
-4 -73 -115 0
5 73 126 0
-5 -73 -126 0
1 74 83 0
-1 -74 -83 0
2 74 94 0
-2 -74 -94 0
3 74 105 0
-3 -74 -105 0
4 74 116 0
-4 -74 -116 0
5 74 127 0
-5 -74 -127 0
1 75 84 0
-1 -75 -84 0
2 75 95 0
-2 -75 -95 0
3 75 106 0
-3 -75 -106 0
4 75 117 0
-4 -75 -117 0
5 75 128 0
-5 -75 -128 0
1 76 85 0
-1 -76 -85 0
2 76 96 0
-2 -76 -96 0
3 76 107 0
-3 -76 -107 0
4 76 118 0
-4 -76 -118 0
5 76 129 0
-5 -76 -129 0
1 77 86 0
-1 -77 -86 0
2 77 97 0
-2 -77 -97 0
3 77 108 0
-3 -77 -108 0
4 77 119 0
-4 -77 -119 0
1 78 87 0
-1 -78 -87 0
2 78 98 0
-2 -78 -98 0
3 78 109 0
-3 -78 -109 0
4 78 120 0
-4 -78 -120 0
1 79 88 0
-1 -79 -88 0
2 79 99 0
-2 -79 -99 0
3 79 110 0
-3 -79 -110 0
4 79 121 0
-4 -79 -121 0
1 80 89 0
-1 -80 -89 0
2 80 100 0
-2 -80 -100 0
3 80 111 0
-3 -80 -111 0
4 80 122 0
-4 -80 -122 0
1 81 90 0
-1 -81 -90 0
2 81 101 0
-2 -81 -101 0
3 81 112 0
-3 -81 -112 0
4 81 123 0
-4 -81 -123 0
1 82 91 0
-1 -82 -91 0
2 82 102 0
-2 -82 -102 0
3 82 113 0
-3 -82 -113 0
4 82 124 0
-4 -82 -124 0
1 83 92 0
-1 -83 -92 0
2 83 103 0
-2 -83 -103 0
3 83 114 0
-3 -83 -114 0
4 83 125 0
-4 -83 -125 0
1 84 93 0
-1 -84 -93 0
2 84 104 0
-2 -84 -104 0
3 84 115 0
-3 -84 -115 0
4 84 126 0
-4 -84 -126 0
1 85 94 0
-1 -85 -94 0
2 85 105 0
-2 -85 -105 0
3 85 116 0
-3 -85 -116 0
4 85 127 0
-4 -85 -127 0
1 86 95 0
-1 -86 -95 0
2 86 106 0
-2 -86 -106 0
3 86 117 0
-3 -86 -117 0
4 86 128 0
-4 -86 -128 0
1 87 96 0
-1 -87 -96 0
2 87 107 0
-2 -87 -107 0
3 87 118 0
-3 -87 -118 0
4 87 129 0
-4 -87 -129 0
1 88 97 0
-1 -88 -97 0
2 88 108 0
-2 -88 -108 0
3 88 119 0
-3 -88 -119 0
1 89 98 0
-1 -89 -98 0
2 89 109 0
-2 -89 -109 0
3 89 120 0
-3 -89 -120 0
1 90 99 0
-1 -90 -99 0
2 90 110 0
-2 -90 -110 0
3 90 121 0
-3 -90 -121 0
1 91 100 0
-1 -91 -100 0
2 91 111 0
-2 -91 -111 0
3 91 122 0
-3 -91 -122 0
1 92 101 0
-1 -92 -101 0
2 92 112 0
-2 -92 -112 0
3 92 123 0
-3 -92 -123 0
1 93 102 0
-1 -93 -102 0
2 93 113 0
-2 -93 -113 0
3 93 124 0
-3 -93 -124 0
1 94 103 0
-1 -94 -103 0
2 94 114 0
-2 -94 -114 0
3 94 125 0
-3 -94 -125 0
1 95 104 0
-1 -95 -104 0
2 95 115 0
-2 -95 -115 0
3 95 126 0
-3 -95 -126 0
1 96 105 0
-1 -96 -105 0
2 96 116 0
-2 -96 -116 0
3 96 127 0
-3 -96 -127 0
1 97 106 0
-1 -97 -106 0
2 97 117 0
-2 -97 -117 0
3 97 128 0
-3 -97 -128 0
1 98 107 0
-1 -98 -107 0
2 98 118 0
-2 -98 -118 0
3 98 129 0
-3 -98 -129 0
1 99 108 0
-1 -99 -108 0
2 99 119 0
-2 -99 -119 0
1 100 109 0
-1 -100 -109 0
2 100 120 0
-2 -100 -120 0
1 101 110 0
-1 -101 -110 0
2 101 121 0
-2 -101 -121 0
1 102 111 0
-1 -102 -111 0
2 102 122 0
-2 -102 -122 0
1 103 112 0
-1 -103 -112 0
2 103 123 0
-2 -103 -123 0
1 104 113 0
-1 -104 -113 0
2 104 124 0
-2 -104 -124 0
1 105 114 0
-1 -105 -114 0
2 105 125 0
-2 -105 -125 0
1 106 115 0
-1 -106 -115 0
2 106 126 0
-2 -106 -126 0
1 107 116 0
-1 -107 -116 0
2 107 127 0
-2 -107 -127 0
1 108 117 0
-1 -108 -117 0
2 108 128 0
-2 -108 -128 0
1 109 118 0
-1 -109 -118 0
2 109 129 0
-2 -109 -129 0
1 110 119 0
-1 -110 -119 0
1 111 120 0
-1 -111 -120 0
1 112 121 0
-1 -112 -121 0
1 113 122 0
-1 -113 -122 0
1 114 123 0
-1 -114 -123 0
1 115 124 0
-1 -115 -124 0
1 116 125 0
-1 -116 -125 0
1 117 126 0
-1 -117 -126 0
1 118 127 0
-1 -118 -127 0
1 119 128 0
-1 -119 -128 0
1 120 129 0
-1 -120 -129 0
