certificates/rado_a11_c2_N129.drat
1 -128 -129 0
-128 -129 0
d 1 -128 -129 0
-11 -129 0
11 120 0
d 11 1 120 0
-129 0
11 0
-10 0
1 0
118 0
21 0
-20 0
-2 0
-120 0
-127 0
-109 0
-30 0
-9 0
-12 0
40 0
128 0
22 0
110 0
0
